
P = 1;

n = 10;

m = 10;

w1 = 1.00;

w2 = 5.00;

L = 3.00;

g = 1.26;

t = 
[[92,62,94,75,81,77,65,87,71,76],
[89,78,81,83,73,73,87,99,68,66],
[97,60,64,88,74,78,91,76,78,95],
[72,71,89,99,86,70,76,84,89,79],
[60,78,89,73,61,94,78,89,86,87],
[87,83,87,91,72,62,61,95,70,79],
[90,74,90,71,73,77,74,81,61,63],
[60,93,82,81,67,75,76,85,64,62],
[72,91,77,92,74,81,86,75,77,88],
[95,99,62,77,63,76,94,77,89,87]];
